
 102   30
  10   10   10   10   10   10   10   10   10   10   10   10   10   10   10   10   10   10   10   10   10   10   10   10   10   10   10   10   10   10

   0   0   0   0   0   0   0   0   0   0   0   0   0   0   0   0   0   0   0   0   0   0   0   0   0   0   0   0   0   0   0  19 2 3 5 6 7 8 9 10 11 12 13 14 15 16 17 22 25 29 30 
   4   0   0   0   1   1   0   0   1   0   0   0   0   0   0   0   0   0   0   0   0   4   0   0   0   0   0   0   0   0   0  14 64 49 44 42 41 36 35 33 32 31 28 23 19 4 
   9   0   0   0   0   0   0   0   0   0   0   0   0   0   0   0   2   0   0   0   0   0   0   0   0   0   0   1   0   0   0  20 101 99 68 67 66 63 57 56 53 52 49 48 45 44 39 36 31 27 26 20 
   8   0   0   0   0   0   0   0   0   1   0   0   0   0   0   0   0   1   0   0   0   0   0   0   0   0   0   0   0   0   0  15 101 57 54 53 48 47 46 45 43 38 37 34 27 24 20 
   4   0   0   0   0   0   0   0   0   0   2   0   0   2   0   0   0   0   0   0   0   6   0   0   0   0   0   0   0   0   0  13 101 69 67 59 57 48 47 42 40 38 34 20 18 
   3   0   0   0   8   0   0   0   0   0   0   0   0   0   1   0   6   4   0   0   0   0   0   0   1   0   1   0   0   0   1  23 101 100 77 73 72 70 68 67 66 61 59 56 53 52 50 49 48 46 44 43 41 40 36 
   3   0   1   0   0   0   0   0   0   0   2   0   1   0   0   0   0   0   2   0   0   0   0   0   0   0   0   4   0   0   4  16 99 71 70 66 63 62 60 59 55 54 53 51 50 49 46 21 
   4   0   0   0   5   5   2   0   0   0   0   0   0   0   0   0   3   0   0   0   0   0   1   0   0   0   0   0   0   0   8  24 101 100 98 97 92 81 79 77 76 73 72 71 70 68 66 63 62 58 57 52 51 49 47 43 
   9   0   0   0   0   0   0   0   0   7   0   0   0   5   0   0   0   0   0   0   0   0   0   0   0   0   0   7   0   0   0  11 99 69 68 67 66 62 60 56 41 27 20 
  10   0   0   0   0   0   0   0   0   0   7   2   0   0   0   1   0   0   4   0   0   0   0   0   0   0   0   0   0   0   0  19 101 100 98 96 94 81 80 78 72 71 70 63 54 52 51 50 47 43 40 
   2   0  10   0   0   0   0   0   8   7   0   0   0   0   0   0   6   0   0   0   0   0   0   0   0   0   0   0   0   0   0  17 100 98 96 91 70 67 66 65 60 55 54 53 52 51 45 42 37 
   7   0   0   0   7   0   0   0   0   0   0   0   0   7   0   0   0  10  10   0   1   0   0   0   0   1   0   0   0   0   0  16 100 93 79 77 72 68 65 61 58 56 53 49 48 46 43 41 
   6   0   0   0   0   0   0   0   0   0   0   0   0   0   0   0   0   7   0   0   0   0   0   0   0   6   0   0   0   1   0  16 100 99 93 80 77 76 70 68 67 66 62 56 48 47 46 43 
   2   1   0   0   0   0   0   1   3   4   0   0   0   5   0   0   0   0   0   0   0   0   0   0   0   0   0   0   0   0   5  20 101 100 98 96 94 92 81 79 78 77 76 73 72 68 61 56 53 51 50 47 
   7   0   0   0   0   0   0  10   0   0   0   0   0   0   0   0   0   0   0   0   0   5   0   0   0   0   0   0   0   0   0  21 99 97 96 94 90 79 78 77 76 72 71 70 66 62 61 60 59 58 56 52 50 
   3   0   0   0   7   0   3   0   0   0   0   0   0   5   0   0   0   0   0   0   0   0   0   0   0   0   0   0   0   0   0  16 100 95 94 92 78 77 72 70 69 60 58 56 52 47 44 41 
   4   0   0   0   0   0   0   0   0   0   0   0   0   0   0   7   0   0   0   0   0   0   0   0   0   0   0   0   0   0   0  13 92 80 77 73 63 61 58 56 52 51 48 46 43 
   1   0   0   0   0   0   3   0   0   0   0   0   0   5   0   0   0   0   9   0   0   0   0   0   0   0   0   0   0   0   0  22 100 99 98 97 96 95 94 92 91 90 81 79 78 76 72 70 66 65 62 60 56 52 
   9   0   0   0   0   0   0   0   0   0   0   0   0  10   0   5   0   0   0   0   0   5   0   0   0   0   0   0   2   0   0  12 93 80 76 70 69 68 67 66 60 58 54 46 
   1   0   0   1   0   6   0   0   0   0   0   5   0   0   0   4   0   4   0   0   0   0   0   0   4   0   0   0   0   0   0  19 100 98 96 95 94 93 92 90 86 80 79 77 76 73 71 70 61 58 50 
   6   0   0   0   0   0   0   0   0   0   0   0   0   0   0   0   3   2   0   0   0   0   0   0   0  10   0   0   0   0   0  18 101 100 97 96 95 94 92 89 88 87 78 77 76 69 68 67 52 47 
   3   0   6   0   6   0   0   0   0   5   0   0   0   0   7   0   0   0   0   0   0   0   0   0   0   0   0   0   7   0   0  16 97 96 94 92 90 80 79 78 77 71 66 62 59 56 52 43 
   4   0   0   0   0   0   6   0   0   0   0   0   0   0   0   0   0   0   2   0   6   0   0   3  10   8   0   0   0   7   0  15 100 97 95 94 92 79 76 73 71 69 68 66 60 47 45 
  10   0   0   6   0   0   4   0   0   0   9   0   0   6   0   8   0   0   0   0   0   0   0   0   0   0   0   0   0   3   0  13 99 97 91 76 72 71 69 67 66 60 59 50 39 
   2   4   0   0   0   0   0   0   0   0   0   6   0   0   0   0   0   0   0   0   0   0   0   0   0   0  10   0   0   0   0  13 98 97 94 92 78 76 72 71 70 69 60 51 44 
   1   0   0   0   0   5   0   0   0   0   0   0   0   0   0   0   0   0   0   0   0   0   0   0   0   8   0   0   0   0   0  12 90 80 78 76 72 70 65 62 61 54 51 43 
   5   0   0   0   0   0   0   7   0   0   0   0   0   0   0   0  10   0   0   0   0  10   0   0   0   0   9   0   3   0   0  14 98 97 92 91 90 80 79 78 76 74 71 70 59 51 
   6   0  10   0   0   0   0   5   0   0   0   0   0  10   0   8   0   0   0   0   0   0   5   0   0   0   0   9   0   0   0  12 94 92 81 79 78 76 75 69 66 60 52 47 
   1   0   0   0   0   0   0   0   0   0   0   0   0   0   0   0   0   0   0   0   0   0   0   0   0   0   0   0   0   0   0  12 101 95 94 90 77 76 71 67 66 60 58 50 
   1   0   0   0   0   0   0   0   0   0   0   0   0   0   0   0   0   0   5   0   8   0   0   0   0   7   0   0   0   0   0  11 92 91 90 80 76 75 70 67 61 60 48 
   5   0   7   0   0   0   8   0   0   0   6   0   0   0   8   0   0   9   0   0   0   0   0   0   0   6   0   0   0   0   0  15 100 98 95 94 93 92 90 87 81 78 77 76 75 70 50 
   3   0   7   6   0   0   0   0   0   0   0   0   0   0   0   0   0  10   0   0   0   0   0   0   0   0   0   9   0   0   0  12 98 96 95 94 91 90 80 70 68 61 59 56 
   6   0   0   0   0   4   0   0   0   0   0   0   0   0   0   0   5   0   0   2   7   0   0   0   0   0   0   0   0   9   0  15 98 97 96 95 94 92 90 88 80 78 75 74 70 69 61 
   1   0   0   0   4   0   0   0   0   9   0   0   0   0   0   0   0   0   0   5   0   0   0   0   2   0   0   8   3   0   0  11 95 92 90 88 80 77 71 66 65 63 58 
   6   0   0   0   0   0   0   0   0   0   0   0   0   0   0   0   6   4   0   8   0   0   0   0   5   0   0   0   8   0   0   9 97 96 93 92 91 75 65 56 55 
   4   8   0   0   0   0   0   0   0   4   0   0   0   0   0   0   0   0   0   0   0   0   0   0   0   0   0   0  10   0   0  12 95 94 93 92 90 86 85 81 76 74 69 60 
   4   0   0   0   0   0   0   0   0   0   0   0   0   6   0   0   0   4   0   0   8   0   0   0   0   0   5   0   0   0   8   9 97 94 92 90 74 72 62 59 56 
   6   0   0   0   0   0   0   0   6   4   0   0   0   0   0   0   6   0   0   0   0   6   0   0   0   0   0   0   0   0   0  10 92 91 89 87 86 81 80 77 73 52 
   9   0   0   0   0   0   0   0   0   0   0   0   0   0   0   0   0   0   0   0   0   0   0   0   0   0   7   0   0   0   3  10 100 94 93 92 90 88 87 86 84 65 
   5   0   0   0   0   3   0   0   0   0   0   0   0   0   0   7   0   0   7   0   0   0   0   0   9   0   0   0   0   0   0   7 99 97 92 79 76 74 58 
   4   0   6   5   5   3   0   0   0   0   0   0   0   0   0   0   0   0   0   0   0   0   0   0   0   7   0   0   0   0   0  10 91 89 88 87 86 85 84 76 74 71 
   4   0   0   4   0   0   0   0   0   0   0   0   0   0   0   0   0   0   0   5   0   0   0   0   0   0   0   0   9   0   0   6 93 92 87 82 75 56 
   3   0   0   0   0   0   0   5   0   0   0   6   5   0   0   0   0   0   9   0   0   0   0   0   0   0   0   0   0   0   0   6 91 86 82 75 69 60 
   2   0   0   0   0   9   0   7   0   0   7   0   0   8   0   0   0   7   0   0   0   5   5   0   0   4   0   0   0   0   9   8 96 91 90 86 84 81 75 74 
   6   0   0   0   0   0   5   0   0   7   0   0   0   4   0   8   3   0   0   0   0   0   7   0   0   0   0   0   0   9   6   7 90 88 87 85 77 74 72 
   3   0   0   3   0   0   9   0   0   5   0   0   0   0   0   0   0   0   0   0   7   0   0   0   0   0   0   0   0   0   0   8 98 96 94 91 90 86 83 78 
   3   4   0   0   0   0   0   0   0   0   0   0   5  10   0   8   0   0   0   0   0   0   0   0   3   0   5   0   0   0   0   5 91 90 86 84 65 
   9   0   0   0   0   0   0   0   0   0   0   6   0   6   0   0   0   0   3   0   0   0   0   0   8   0   0   0   0   0   0   7 97 95 87 86 85 84 83 
   5   0   0   7   0   8   0   0   0   0   0   0   0   0   0   0   0   0   0   0   0   0   0   0   0   7   0   7   0   0   0   5 91 87 86 80 78 
   9   0   0   0   0   8   0   0   0   0   0   0   0   0   0   0   6   0   0   0   0   0   0   0   0   0   4   0   0   6   0   3 88 84 65 
   9   0   0   0   0   0   0   0   0   0  10   0   0   0   0   0   0   0   0   0   8   0   0   0   0   0   0   0   0   0   0   6 95 93 89 88 87 86 
   3   0   0   0   0   0   0   0   9   8   0   0   0   4   0   0   0   0   6   0   0   0   0   0   0   0   0   0   0   0   0   5 93 85 84 83 74 
   3   0   0   0   0   0   0   0  10   0   0   0   0   0   0   0  10   0   0   0   0   0   0   0   0   0   0   0   5   0   0   5 90 89 87 86 74 
   6   6   0   0   0   0   0   0   0   0   0   0   0   0   0   0   0   0   0   0   0   0   0   0   0   0   0   0   0   0   0   5 92 89 85 84 77 
   1   0   0  10   0   0   0   0   6   0   0   0   0   0   7   0   0   0   0   0   0   8   0   0   0   0   0   0   0   0   0   5 95 90 88 83 74 
  10   0   0   0   0   0   0   0   0   5   0   0   0   0   0   0   0   0   0   0   0   0   0   0   0   0   0   0   6   0   0   5 89 88 86 85 84 
   9   0   0   0   0   0   0   0   0   0   0   0   0   0   0   0   0   0   0   0   7   0   0   0   0   4   0   0   0   0   0   5 96 94 91 86 83 
   3   0   0   0   0   0  10   0   0   0   0   0   0   4   0   0   8   0   0   0   0   0   0   0   0   0   0   5   0   0   0   4 91 87 84 75 
   8   0   6   0   0   0   0   0   0   8   0   0   0   0   0   0   9   0   0   0   0   0   0   0   0   2   0   0   0   0  10   4 87 84 82 75 
   8   0   0   0   0   0   0   0   0   0   0   8   0   0   0   5   0   0   0   0   0   6   0   0   0   0   0   0   0   0   0   4 89 88 87 84 
  10   0   0   0   0   0  10   0   0   0   0   0   0   0   0   0   0   0   0   0   0   0   0   0   0   0   4   0   0   0   0   4 89 84 83 82 
   7   0   0   0   0   0   0   0   7   0   0   0   0   0   0   0   0   0   0   0   0   0   0   0   0   0   0   0   0   7   0   4 88 84 83 82 
   9   0   0   0   0   0   0   0   0   0   6   0   0   0   0   0   0   0   0   0   0   0   7   0   0   0   0   0   0   0   0   4 93 91 83 82 
   9   0   0   0   0   0   3   0   0   0   0   0   0   0   0   0   0   0   0   0   0   0   0   0   0   0   0   0   0   0   0   4 96 84 83 82 
   9   0   0   0   0   7   0   0   0   0   0   0   0   0   0   0   0   0   0   0   0  10   0   0   0   0   0   4   0   0   8   3 85 83 74 
   1   0   0   0   7   0   0   7   0   0   0   0   3   0   0   6   0   0   0   0  10   3   9   0   0   0   0   0   0   0   0   3 87 84 74 
   7   0   0   0   0   0   0   5   0   0   0   0   0   0   0   0   9   0   0   0   4   0   0   0   0   0   0   0   0   0   0   2 79 74 
   2   0   0   9   0   0   0   0   0   0   0   0  10   0   0   0   0   0   0   0   0   0   0   0   0  10   0   0   0   0   0   2 86 75 
   3   0   0   0   0   7  10   0   0   0   0   7   7   0   0   0   0   0   8   0   6   0   0   0  10   0   0   0   0   0   0   2 84 83 
   3   0   0   0  10   0   0   0   0   0   0   0   9   0   0   0   0   0   0   0   0   0   0   0   0   0   0   6   0   0   0   2 84 83 
   9   7   0   0   0   0   0   0   8   0   0   0   0   5   0   0   0   0   0   0   6   0   0   0   0   0   7   0   2   0   0   2 83 82 
   5   0   0   0   0   0   9   0   0   0   0   0   0   4   0   0   7   0   0   0   0   0   0   3   0   0   0   0   0   0   0   2 86 84 
   4   0   0   0   0   0   0   0   0   0   0   0   0   0   0   0   0   0   0   0   0   0   0   0   5   7   0   0   0   0   0   2 85 82 
   3   0   2   0   0   0   0   0   0   0   0   0   0   0   0   0   0   0   0   0   0   0   0   0   0   0   0   0   0   0   0   1 82 
   6   0   0   0   0   0   0   0   0   5   0   0   0   0   0   0   0   0   0   0   0   0   0   8   0   0   0   0   0   0   0   1 83 
   7   0   0   9   0   0   0   0   0   0   0  10   0   0   0   0   0   0   0   0   0   0   0   0   0   0   0   0   0   6   4   1 82 
   9   0   0   0   5   0   0   0   0   0   0   0   0   0   0   0   0   0   7   0   0   0   8   0   0   0   0   0   0   0   0   1 82 
   1   0   0   0   5   0   3   0   3   0   2   0   0   0   0   0   0   0   0   0   0   0   0   0   0   0   0   0   8   0   0   1 85 
   2   0   0   0   0   0   0   0   0   0   0   0   0   0   0   0   0   7   9   0   0   0   0   0   0   0   0   0   0   0   0   1 82 
   2   0   0   0   0   0   0   0   0   0   0   0   0   0   0   0   0   0   0   0   0   0   8   0   8   0   0   0   0   0   0   1 83 
   9   7   0   0   0   0   0   0   0   0   5   0   5   0   0   0   4   0   0  10   0   0   0   0   0   0   0   0   0   0   0   1 82 
   4   0   0   0   0   0   0   0   0   8   0   0   0   0   0   0   0   0   0   0   0   0   0   0   0   0   0   0   0   0   6   1 102
   6   0   0   0   0   0   6   0   0   0   0   0   9   0   0   5   0   0   0   0   3   0   3   0   0   0   8   0   0   0   0   1 102
   2   0   0   0   0   0   0   0   0   0   0   0   0   0   0   0   0   0   0   0   0   6   0   0   0   0   0   0   0   0   0   1 102
   2   0   0   0   0   0   8   6   0   0   0   0   0   0   0   0   0   0   0   0   0   0   4   0   0   0   0   0   0   0   0   1 102
   6   0   0   0   0   0   0   0   0   0   5   0   0   0   0   6   0   0   0   0   2   0   0   0   0   0   0  10   0   0   0   1 102
   1   0   5   0   0   0   0   0   0   0   0   0   0   0   0   0   0   0   0   0   4   0   0   0   0   0   0   0   0   0   0   1 102
   3   0   0   0   8   0   0   0   0   0   0   0   0   4   0   0   0   0   0   0   0   4   0   0   0   0   0   0   0   0   0   1 102
   2   0   0   0   0   0   3   0   0   0   0   0   0   0   0   0   0   0   2   0   0   0   0   0   6   0   0   0   0   0   0   1 102
   9   7   0   0   0   0   0   0   0   0   0   0   0   0   7   0   8   9   0   0   0   0   0   0   0   0   0   0  10   0   0   1 102
   4   0   0   6   0   0   0   0   5   0   0   6   0   0   0   0   0   0   0   5   0   0   0   0   0   4   0   0   0   0   0   1 102
   2   0   0   0   0  10   5   0   0   0   8   0   0   0   0   0   0   0   0   0   0   0   0  10   0   0   0   0   0   0   0   1 102
   5  10   0   0   0   0   0   0   5   0   0   0   0   0   0   0   6   0   0   0   8   0   0   0   0   3   0   0   0   0   0   1 102
   1   0   0   0   0   8   0   0   0   9   9   0   0   0   0   0   0   0   0   0   6   0   0   0   0   4   0   0   0   0   0   1 102
   5   0   6   0   0   0   0   0   0   0   7   0   0   0   0   0   0   0   0   2   0   0   0   0   0   0   0   2   0   0   0   1 102
   2   0   0   0   0   0   0   0   0   0   0   0   0   0   0   0   0   0   0   8   0   6   0   0   0   9   0   0   0   0   0   1 102
   3   6   0   0   6   0   0   7   0   6   0   0   0   0   0   0   0   0   0   0   0   0   0   0   0   0   0   0   0   0   0   1 102
   1   0   0   0   0   0   7   0   7   0   0   4   0   7   0   0   3   0   0   5   3   0   0   0   0   0   8   0   0   0   0   1 102
   2   0   0   0   0   0   6   0   0   0   6   0   0   9   0   0   0   0   6   0   0   0   9   0   0   7   0   0   5   0   0   1 102
  10   0   0   0   0   0   0   0   0   0   0   0   0   0   0   0   0   0   7  10   0   0   0   0   0   0   0   0   0   0   0   1 102
   3   0   0   0   0   0   0   0   0   0   5   0   0   0   0   0   0   0   0   0  10   0   0   0   7   0   4   0   0   0   0   1 102
   0   0   0   0   0   0   0   0   0   0   0   0   0   0   0   0   0   0   0   0   0   0   0   0   0   0   0   0   0   0   0   0 
